; benchmark generated from python API
(set-info :status unknown)
(declare-fun DISJ_W_S2_R_S1 () Bool)
(declare-fun W_S2_V2 () Bool)
(declare-fun R_S2_V4 () Bool)
(declare-fun R_S2_V5 () Bool)
(declare-fun R_S2_V1 () Bool)
(declare-fun W_S2_V3 () Bool)
(declare-fun R_S2_V3 () Bool)
(declare-fun W_S1_V4 () Bool)
(declare-fun W_S1_V5 () Bool)
(declare-fun W_S2_V5 () Bool)
(declare-fun DISJ_W_S1_W_S2 () Bool)
(declare-fun W_S2_V1 () Bool)
(declare-fun DISJ_W_S1_R_S2 () Bool)
(declare-fun DISJ_W_S2_R_S2 () Bool)
(declare-fun R_E1_V4 () Bool)
(declare-fun R_E1_V5 () Bool)
(declare-fun R_S2_V2 () Bool)
(declare-fun R_S1_V4 () Bool)
(declare-fun R_S1_V5 () Bool)
(declare-fun R_S1_V2 () Bool)
(declare-fun R_S1_V3 () Bool)
(declare-fun R_S1_V1 () Bool)
(declare-fun R_E1_V2 () Bool)
(declare-fun DISJ_W_S2_R_E1 () Bool)
(declare-fun R_E1_V3 () Bool)
(declare-fun DISJ_W_S1_R_S1 () Bool)
(declare-fun W_S2_V4 () Bool)
(declare-fun W_S1_V3 () Bool)
(declare-fun W_S1_V2 () Bool)
(declare-fun W_S1_V1 () Bool)
(declare-fun R_E1_V1 () Bool)
(declare-fun DISJ_W_S1_R_E1 () Bool)
(assert
 (let (($x3163 (not W_S2_V2)))
 (let (($x1443 (not R_S2_V4)))
 (let (($x449 (not R_S2_V5)))
 (let (($x6029 (not R_S2_V1)))
 (let (($x1392 (not (and $x6029 $x449 $x1443 $x3163 DISJ_W_S2_R_S1))))
 (let (($x3541 (not (and $x6029 $x1443 $x3163 (not W_S2_V3) DISJ_W_S2_R_S1))))
 (let (($x3297 (not (and $x6029 (not R_S2_V3) $x1443 $x3163 DISJ_W_S2_R_S1))))
 (let (($x1694 (not (and $x449 (not W_S1_V4) (not W_S2_V3) DISJ_W_S2_R_S1))))
 (let (($x1479 (not (and $x449 $x1443 (not W_S2_V3) DISJ_W_S2_R_S1))))
 (let (($x2755 (not (and $x1443 (not W_S1_V5) (not W_S2_V3) DISJ_W_S2_R_S1))))
 (let (($x2673 (not (and $x1443 (not W_S2_V5) (not W_S2_V3) DISJ_W_S2_R_S1))))
 (let (($x565 (not (and DISJ_W_S1_W_S2 DISJ_W_S2_R_S1))))
 (let (($x3903 (not (and (not R_S2_V3) (not W_S1_V4) (not W_S2_V5) DISJ_W_S2_R_S1))))
 (let (($x1067 (not W_S2_V1)))
 (let (($x2999 (and $x1067 $x3163)))
 (let (($x2961 (not $x2999)))
 (let (($x2213 (not (and (not R_S2_V3) $x1443 (not W_S2_V5) DISJ_W_S2_R_S1))))
 (let (($x3582 (not (and DISJ_W_S1_R_S2 DISJ_W_S2_R_S1))))
 (let (($x2625 (not (and $x3163 DISJ_W_S2_R_S2))))
 (let (($x3890 (not (and DISJ_W_S2_R_S1 DISJ_W_S2_R_S2))))
 (let (($x5721 (not (and W_S1_V4 R_E1_V4))))
 (let (($x857 (not (and W_S1_V5 R_E1_V5))))
 (let (($x5823 (forall ((V3_0 Int) )(forall ((V2_0 Int) )(forall ((V5_0 Int) )(forall ((V4_0 Int) )(forall ((MW_S1_V1 Bool) )(forall ((MW_S1_V3 Bool) )(forall ((MW_S1_V2 Bool) )(forall ((MW_S1_V5 Bool) )(forall ((MW_S1_V4 Bool) )(forall ((MW_S2_V1 Bool) )(forall ((MW_S2_V3 Bool) )(forall ((MW_S2_V2 Bool) )(forall ((MW_S2_V5 Bool) )(forall ((MW_S2_V4 Bool) )(forall ((S1_V1_!2447 Int) )(forall ((S1_V1_!2457 Int) )(forall ((S1_V1_!2468 Int) )(forall ((S2_V5_!2455 Int) )(forall ((S2_V5_!2465 Int) )(forall ((S2_V5_!2477 Int) )(forall ((S2_V5_!2482 Int) )(forall ((S1_V3_!2448 Int) )(forall ((S1_V3_!2458 Int) )(forall ((S1_V3_!2469 Int) )(forall ((S1_V2_!2449 Int) )(forall ((S1_V2_!2459 Int) )(forall ((S1_V2_!2470 Int) )(forall ((E1_!2446 Int) )(forall ((E1_!2467 Int) )(forall ((E1_!2473 Int) )(forall ((S2_V4_!2456 Int) )(forall ((S2_V4_!2466 Int) )(forall ((S2_V4_!2478 Int) )(forall ((S2_V4_!2483 Int) )(forall ((S1_V5_!2450 Int) )(forall ((S1_V5_!2460 Int) )(forall ((S1_V5_!2471 Int) )(forall ((S2_V1_!2452 Int) )(forall ((S2_V1_!2462 Int) )(forall ((S2_V1_!2474 Int) )(forall ((S2_V1_!2479 Int) )(forall ((S1_V4_!2451 Int) )(forall ((S1_V4_!2461 Int) )(forall ((S1_V4_!2472 Int) )(forall ((S2_V2_!2454 Int) )(forall ((S2_V2_!2464 Int) )(forall ((S2_V2_!2476 Int) )(forall ((S2_V2_!2481 Int) )(forall ((S2_V3_!2453 Int) )(forall ((S2_V3_!2463 Int) )(forall ((S2_V3_!2475 Int) )(forall ((S2_V3_!2480 Int) )(let (($x2485 (= (ite MW_S2_V4 S2_V4_!2466 (ite MW_S1_V4 S1_V4_!2461 (ite MW_S2_V4 S2_V4_!2456 (ite MW_S1_V4 S1_V4_!2451 V4_0)))) (ite MW_S2_V4 S2_V4_!2483 (ite MW_S1_V4 S1_V4_!2472 V4_0)))))
 (let (($x2556 (= (ite MW_S2_V5 S2_V5_!2465 (ite MW_S1_V5 S1_V5_!2460 (ite MW_S2_V5 S2_V5_!2455 (ite MW_S1_V5 S1_V5_!2450 V5_0)))) (ite MW_S2_V5 S2_V5_!2482 (ite MW_S1_V5 S1_V5_!2471 V5_0)))))
 (let ((?x2053 (ite MW_S1_V2 S1_V2_!2470 V2_0)))
 (let ((?x5920 (ite MW_S2_V2 S2_V2_!2481 ?x2053)))
 (let ((?x3850 (ite MW_S1_V2 S1_V2_!2449 V2_0)))
 (let ((?x2082 (ite MW_S2_V2 S2_V2_!2454 ?x3850)))
 (let ((?x2594 (ite MW_S1_V2 S1_V2_!2459 ?x2082)))
 (let ((?x2565 (ite MW_S2_V2 S2_V2_!2464 ?x2594)))
 (let (($x3849 (= (ite MW_S2_V3 S2_V3_!2463 (ite MW_S1_V3 S1_V3_!2458 (ite MW_S2_V3 S2_V3_!2453 (ite MW_S1_V3 S1_V3_!2448 V3_0)))) (ite MW_S2_V3 S2_V3_!2480 (ite MW_S1_V3 S1_V3_!2469 V3_0)))))
 (let ((?x1776 (ite MW_S2_V1 S2_V1_!2474 E1_!2473)))
 (let ((?x2753 (+ 1 ?x1776)))
 (let ((?x2033 (ite MW_S2_V1 S2_V1_!2479 ?x2753)))
 (let ((?x1794 (ite MW_S1_V1 S1_V1_!2447 E1_!2446)))
 (let ((?x2327 (ite MW_S2_V1 S2_V1_!2452 ?x1794)))
 (let ((?x1491 (+ 1 ?x2327)))
 (let ((?x320 (ite MW_S1_V1 S1_V1_!2457 ?x1491)))
 (let ((?x1508 (ite MW_S2_V1 S2_V1_!2462 ?x320)))
 (let (($x5020 (and (not (<= V2_0 E1_!2446)) (not (<= ?x2082 ?x1491)) (>= ?x1508 (+ (- 1) ?x2565)) (not (<= V2_0 E1_!2467)) (>= (ite MW_S1_V1 S1_V1_!2468 E1_!2467) (+ (- 1) ?x2053)) (not (<= ?x2053 E1_!2473)) (not (<= (ite MW_S2_V2 S2_V2_!2476 ?x2053) ?x2753)) (>= ?x2033 (+ (- 1) ?x5920)))))
 (let (($x4951 (= S2_V3_!2475 S2_V3_!2480)))
 (let (($x1443 (not R_S2_V4)))
 (let (($x1739 (or $x1443 (= (ite MW_S1_V4 S1_V4_!2472 V4_0) (ite MW_S2_V4 S2_V4_!2478 (ite MW_S1_V4 S1_V4_!2472 V4_0))))))
 (let (($x449 (not R_S2_V5)))
 (let (($x3690 (or $x449 (= (ite MW_S1_V5 S1_V5_!2471 V5_0) (ite MW_S2_V5 S2_V5_!2477 (ite MW_S1_V5 S1_V5_!2471 V5_0))))))
 (let (($x666 (not R_S2_V3)))
 (let (($x2912 (or $x666 (= (ite MW_S1_V3 S1_V3_!2469 V3_0) (ite MW_S2_V3 S2_V3_!2475 (ite MW_S1_V3 S1_V3_!2469 V3_0))))))
 (let (($x3623 (and (or (not R_S2_V1) (= E1_!2473 ?x2753)) $x2912 (or (not R_S2_V2) (= ?x2053 (ite MW_S2_V2 S2_V2_!2476 ?x2053))) $x3690 $x1739)))
 (let (($x1502 (not $x3623)))
 (let (($x1279 (= S2_V3_!2475 S2_V3_!2463)))
 (let ((?x2793 (ite MW_S1_V4 S1_V4_!2451 V4_0)))
 (let ((?x5952 (ite MW_S2_V4 S2_V4_!2456 ?x2793)))
 (let ((?x5766 (ite MW_S1_V4 S1_V4_!2461 ?x5952)))
 (let ((?x928 (ite MW_S1_V4 S1_V4_!2472 V4_0)))
 (let ((?x2315 (ite MW_S1_V5 S1_V5_!2450 V5_0)))
 (let ((?x1580 (ite MW_S2_V5 S2_V5_!2455 ?x2315)))
 (let ((?x2100 (ite MW_S1_V5 S1_V5_!2460 ?x1580)))
 (let ((?x94 (ite MW_S1_V5 S1_V5_!2471 V5_0)))
 (let ((?x181 (ite MW_S1_V3 S1_V3_!2448 V3_0)))
 (let ((?x433 (ite MW_S2_V3 S2_V3_!2453 ?x181)))
 (let ((?x1319 (ite MW_S1_V3 S1_V3_!2458 ?x433)))
 (let ((?x1688 (ite MW_S1_V3 S1_V3_!2469 V3_0)))
 (let (($x6079 (and (or (not R_S2_V1) (= E1_!2473 ?x320)) (or $x666 (= ?x1688 ?x1319)) (or (not R_S2_V2) (= ?x2053 ?x2594)) (or $x449 (= ?x94 ?x2100)) (or $x1443 (= ?x928 ?x5766)))))
 (let (($x5317 (not $x6079)))
 (let (($x1875 (= S2_V3_!2475 S2_V3_!2453)))
 (let (($x3833 (and (or (not R_S2_V1) (= E1_!2473 ?x1794)) (or $x666 (= ?x1688 ?x181)) (or (not R_S2_V2) (= ?x2053 ?x3850)) (or $x449 (= ?x94 ?x2315)) (or $x1443 (= ?x928 ?x2793)))))
 (let (($x2752 (not $x3833)))
 (let (($x3725 (= S2_V3_!2463 S2_V3_!2480)))
 (let (($x2232 (and (or (not R_S2_V1) (= ?x320 ?x2753)) (or $x666 (= ?x1319 (ite MW_S2_V3 S2_V3_!2475 ?x1688))) (or (not R_S2_V2) (= ?x2594 (ite MW_S2_V2 S2_V2_!2476 ?x2053))) (or $x449 (= ?x2100 (ite MW_S2_V5 S2_V5_!2477 ?x94))) (or $x1443 (= ?x5766 (ite MW_S2_V4 S2_V4_!2478 ?x928))))))
 (let (($x981 (not $x2232)))
 (let (($x4687 (= S2_V3_!2463 S2_V3_!2453)))
 (let (($x2409 (and (or (not R_S2_V1) (= ?x320 ?x1794)) (or $x666 (= ?x1319 ?x181)) (or (not R_S2_V2) (= ?x2594 ?x3850)) (or $x449 (= ?x2100 ?x2315)) (or $x1443 (= ?x5766 ?x2793)))))
 (let (($x4134 (not $x2409)))
 (let (($x1944 (= S2_V3_!2453 S2_V3_!2480)))
 (let (($x2337 (and (or (not R_S2_V1) (= ?x1794 ?x2753)) (or $x666 (= ?x181 (ite MW_S2_V3 S2_V3_!2475 ?x1688))) (or (not R_S2_V2) (= ?x3850 (ite MW_S2_V2 S2_V2_!2476 ?x2053))) (or $x449 (= ?x2315 (ite MW_S2_V5 S2_V5_!2477 ?x94))) (or $x1443 (= ?x2793 (ite MW_S2_V4 S2_V4_!2478 ?x928))))))
 (let (($x5494 (not $x2337)))
 (let (($x5908 (= S2_V2_!2481 S2_V2_!2476)))
 (let (($x132 (and (or (not R_S2_V1) (= ?x1776 (+ (- 1) E1_!2473))) (or $x666 (= (ite MW_S2_V3 S2_V3_!2475 ?x1688) ?x1688)) (or (not R_S2_V2) (= (ite MW_S2_V2 S2_V2_!2476 ?x2053) ?x2053)) (or $x449 (= (ite MW_S2_V5 S2_V5_!2477 ?x94) ?x94)) (or $x1443 (= (ite MW_S2_V4 S2_V4_!2478 ?x928) ?x928)))))
 (let (($x1403 (not $x132)))
 (let (($x1205 (= S2_V2_!2481 S2_V2_!2464)))
 (let (($x3078 (and (or (not R_S2_V1) (= ?x1776 (+ (- 1) ?x320))) (or $x666 (= (ite MW_S2_V3 S2_V3_!2475 ?x1688) ?x1319)) (or (not R_S2_V2) (= (ite MW_S2_V2 S2_V2_!2476 ?x2053) ?x2594)) (or $x449 (= (ite MW_S2_V5 S2_V5_!2477 ?x94) ?x2100)) (or $x1443 (= (ite MW_S2_V4 S2_V4_!2478 ?x928) ?x5766)))))
 (let (($x4061 (= S2_V2_!2464 S2_V2_!2476)))
 (let (($x3728 (and (or (not R_S2_V1) (= ?x320 E1_!2473)) (or $x666 (= ?x1319 ?x1688)) (or (not R_S2_V2) (= ?x2594 ?x2053)) (or $x449 (= ?x2100 ?x94)) (or $x1443 (= ?x5766 ?x928)))))
 (let (($x3037 (not $x3728)))
 (let (($x1963 (= S2_V2_!2454 S2_V2_!2476)))
 (let (($x253 (and (or (not R_S2_V1) (= ?x1794 E1_!2473)) (or $x666 (= ?x181 ?x1688)) (or (not R_S2_V2) (= ?x3850 ?x2053)) (or $x449 (= ?x2315 ?x94)) (or $x1443 (= ?x2793 ?x928)))))
 (let (($x6050 (not $x253)))
 (let (($x2746 (= S2_V2_!2454 S2_V2_!2464)))
 (let (($x3972 (and (or (not R_S2_V1) (= ?x1794 ?x320)) (or $x666 (= ?x181 ?x1319)) (or (not R_S2_V2) (= ?x3850 ?x2594)) (or $x449 (= ?x2315 ?x2100)) (or $x1443 (= ?x2793 ?x5766)))))
 (let (($x648 (not $x3972)))
 (let (($x954 (= S1_V4_!2472 S1_V4_!2461)))
 (let (($x2872 (not R_S1_V4)))
 (let (($x61 (or $x2872 (= V4_0 ?x5952))))
 (let (($x2637 (not R_S1_V5)))
 (let (($x1125 (or $x2637 (= V5_0 ?x1580))))
 (let (($x3187 (not R_S1_V2)))
 (let (($x3367 (or $x3187 (= V2_0 ?x2082))))
 (let (($x1662 (not R_S1_V3)))
 (let (($x2772 (or $x1662 (= V3_0 ?x433))))
 (let (($x4607 (not (and (or (not R_S1_V1) (= E1_!2467 ?x1491)) $x2772 $x3367 $x1125 $x61))))
 (let (($x1652 (not (and (or (not R_S1_V1) (= E1_!2446 ?x1491)) $x2772 $x3367 $x1125 $x61))))
 (let (($x1209 (and (or (not R_S2_V1) (= ?x1776 (+ (- 1) ?x1794))) (or $x666 (= (ite MW_S2_V3 S2_V3_!2475 ?x1688) ?x181)) (or (not R_S2_V2) (= (ite MW_S2_V2 S2_V2_!2476 ?x2053) ?x3850)) (or $x449 (= (ite MW_S2_V5 S2_V5_!2477 ?x94) ?x2315)) (or $x1443 (= (ite MW_S2_V4 S2_V4_!2478 ?x928) ?x2793)))))
 (let (($x1740 (and (or (not R_E1_V2) (= V2_0 ?x2053)) (or (not R_E1_V5) (= V5_0 ?x94)) (or (not R_E1_V4) (= V4_0 ?x928)))))
 (let (($x1754 (not $x1740)))
 (let (($x1310 (= E1_!2467 E1_!2446)))
 (let (($x680 (or $x2872 (= ?x5952 V4_0))))
 (let (($x972 (or $x2637 (= ?x1580 V5_0))))
 (let (($x3584 (or $x3187 (= ?x2082 V2_0))))
 (let (($x1120 (or $x1662 (= ?x433 V3_0))))
 (let (($x4649 (and (or (not R_S1_V1) (= ?x2327 (+ (- 1) E1_!2467))) $x1120 $x3584 $x972 $x680)))
 (let (($x1757 (not $x4649)))
 (let (($x743 (= S1_V2_!2459 S1_V2_!2449)))
 (let (($x673 (and (or (not R_S1_V1) (= ?x2327 (+ (- 1) E1_!2446))) $x1120 $x3584 $x972 $x680)))
 (let (($x1297 (not $x673)))
 (let (($x1485 (and (or $x1297 (= S1_V1_!2457 S1_V1_!2447)) (or (not (or (not R_S1_V1) $x1310)) (= S1_V1_!2468 S1_V1_!2447)) (or $x4607 (= S1_V1_!2468 S1_V1_!2457)) (or $x648 (= S2_V5_!2455 S2_V5_!2465)) (or $x6050 (= S2_V5_!2455 S2_V5_!2477)) (or $x5494 (= S2_V5_!2455 S2_V5_!2482)) (or $x3037 (= S2_V5_!2465 S2_V5_!2477)) (or $x981 (= S2_V5_!2465 S2_V5_!2482)) (or $x1403 (= S2_V5_!2482 S2_V5_!2477)) (or $x1297 (= S1_V3_!2458 S1_V3_!2448)) (or $x1757 (= S1_V3_!2458 S1_V3_!2469)) (or (not (or (not R_S1_V1) $x1310)) (= S1_V3_!2469 S1_V3_!2448)) (or $x1297 $x743) (or $x1757 (= S1_V2_!2459 S1_V2_!2470)) (or (not (or (not R_S1_V1) $x1310)) (= S1_V2_!2470 S1_V2_!2449)) (or $x1754 (= E1_!2446 E1_!2473)) $x1310 (or $x1754 (= E1_!2467 E1_!2473)) (or $x4134 (= S2_V4_!2466 S2_V4_!2456)) (or $x3037 (= S2_V4_!2466 S2_V4_!2478)) (or $x981 (= S2_V4_!2466 S2_V4_!2483)) (or $x2752 (= S2_V4_!2478 S2_V4_!2456)) (or $x1502 (= S2_V4_!2478 S2_V4_!2483)) (or (not $x1209) (= S2_V4_!2483 S2_V4_!2456)) (or $x1652 (= S1_V5_!2450 S1_V5_!2460)) (or (not (or (not R_S1_V1) $x1310)) (= S1_V5_!2471 S1_V5_!2450)) (or $x4607 (= S1_V5_!2471 S1_V5_!2460)) (or $x5494 (= S2_V1_!2452 S2_V1_!2479)) (or $x4134 (= S2_V1_!2462 S2_V1_!2452)) (or $x981 (= S2_V1_!2462 S2_V1_!2479)) (or $x2752 (= S2_V1_!2474 S2_V1_!2452)) (or $x5317 (= S2_V1_!2474 S2_V1_!2462)) (or $x1502 (= S2_V1_!2474 S2_V1_!2479)) (or $x1652 (= S1_V4_!2451 S1_V4_!2461)) (or (not (or (not R_S1_V1) (= E1_!2446 E1_!2467))) (= S1_V4_!2451 S1_V4_!2472)) (or $x4607 $x954) (or $x648 $x2746) (or $x6050 $x1963) (or $x5494 (= S2_V2_!2454 S2_V2_!2481)) (or $x3037 $x4061) (or (not $x3078) $x1205) (or $x1403 $x5908) (or $x5494 $x1944) (or $x4134 $x4687) (or $x981 $x3725) (or $x2752 $x1875) (or $x5317 $x1279) (or $x1502 $x4951) (not MW_S1_V1) (not MW_S1_V2) (or (not MW_S1_V5) W_S1_V5) (or (not MW_S1_V4) W_S1_V4) (or (not MW_S2_V1) W_S2_V1) (or (not MW_S2_V3) W_S2_V3) (or (not MW_S2_V2) W_S2_V2) (or (not MW_S2_V5) W_S2_V5))))
 (or (not $x1485) (not $x5020) (and (= ?x1508 ?x2033) $x3849 (= ?x2565 ?x5920) $x2556 $x2485))))))))))))))))))))))))))))))))))))))))))))))))))))))))))))))))))))))))))))))))))))))))))))))))
 )
 )
 )
 )
 )
 )
 )
 )
 )
 )
 )
 )
 )
 )
 )
 )
 )
 )
 )
 )
 )
 )
 )
 )
 )
 )
 )
 )
 )
 )
 )
 )
 )
 )
 )
 )
 )
 )
 )
 )
 )
 )
 )
 )
 )
 )
 )
 )
 )
 )
 )
 ))
 (let (($x4804 (not (or (and W_S2_V2 R_E1_V2) (and W_S2_V5 R_E1_V5) R_E1_V4))))
 (let (($x1519 (= DISJ_W_S2_R_E1 $x4804)))
 (let (($x3495 (and W_S2_V5 R_S2_V5)))
 (let (($x4026 (and W_S2_V2 R_S2_V2)))
 (let (($x1193 (and W_S2_V3 R_S2_V3)))
 (let (($x5929 (and W_S2_V1 R_S2_V1)))
 (let (($x5507 (= DISJ_W_S2_R_S2 (not (or $x5929 $x1193 $x4026 $x3495 R_S2_V4)))))
 (let (($x2511 (and W_S2_V5 R_S1_V5)))
 (let (($x5370 (and W_S2_V2 R_S1_V2)))
 (let (($x2515 (and W_S2_V3 R_S1_V3)))
 (let (($x3273 (and W_S2_V1 R_S1_V1)))
 (let (($x4594 (= DISJ_W_S2_R_S1 (not (or $x3273 $x2515 $x5370 $x2511 R_S1_V4)))))
 (let (($x5474 (= DISJ_W_S1_W_S2 (not (or W_S2_V3 (and W_S1_V5 W_S2_V5) W_S1_V4)))))
 (let (($x1259 (not R_E1_V3)))
 (let (($x5992 (not (or R_S2_V3 (and W_S1_V5 R_S2_V5) (and W_S1_V4 R_S2_V4)))))
 (let (($x1841 (= DISJ_W_S1_R_S2 $x5992)))
 (let (($x441 (or R_S1_V3 (and W_S1_V5 R_S1_V5) (and W_S1_V4 R_S1_V4))))
 (let (($x1135 (= DISJ_W_S1_R_S1 (not $x441))))
 (let (($x966 (not R_S1_V1)))
 (let (($x898 (and $x966 DISJ_W_S1_R_S1)))
 (let (($x1231 (and $x3163 DISJ_W_S2_R_S1 DISJ_W_S1_R_S1)))
 (let (($x5955 (or $x1231 $x2999 $x898)))
 (let (($x635 (not W_S1_V2)))
 (let (($x780 (not W_S1_V1)))
 (let (($x798 (not R_E1_V1)))
 (let (($x2456 (and DISJ_W_S1_R_E1 $x798 $x780 $x635 $x5955 W_S1_V3 W_S2_V4 $x1135 $x1841 $x1259 $x5474 $x4594 $x5507 $x1519 $x5823 $x857 $x5721)))
 (and $x2456 $x3890 $x2625 $x3582 $x2213 $x2961 $x3903 $x565 $x2673 $x2755 $x1479 $x1694 $x3297 $x3541 $x1392)))))))))))))))))))))))))))))))))))))))))))))))))))
(check-sat)
